NAME : tsp50_15.233.tour
COMMENT : Length = 233
COMMENT : Found by LKH [Keld Helsgaun]
TYPE : TOUR
DIMENSION : 50
TOUR_SECTION
1
41
9
10
50
23
25
38
22
17
28
16
36
47
15
34
27
32
35
19
39
14
7
30
24
4
11
8
20
31
13
18
49
43
33
48
3
12
29
46
2
40
6
37
42
5
21
44
26
45
-1
EOF
